p edge 2249 2199
e 1 2
e 1 3
e 1 4
e 1 5
e 1 6
e 1 7
e 1 8
e 1 9
e 1 10
e 1 11
e 1 12
e 1 13
e 1 14
e 1 15
e 1 16
e 1 17
e 1 18
e 1 19
e 1 20
e 1 21
e 1 22
e 1 23
e 1 24
e 1 25
e 1 26
e 1 27
e 1 28
e 1 29
e 1 30
e 1 31
e 32 33
e 32 34
e 32 35
e 32 36
e 32 37
e 32 38
e 32 39
e 32 40
e 32 41
e 32 42
e 32 43
e 32 44
e 32 45
e 32 46
e 32 47
e 32 48
e 32 49
e 32 50
e 32 51
e 32 52
e 32 53
e 32 54
e 32 55
e 32 56
e 32 57
e 32 58
e 32 59
e 32 60
e 32 61
e 32 62
e 32 63
e 32 64
e 32 65
e 32 66
e 32 67
e 32 68
e 32 69
e 32 70
e 32 71
e 32 72
e 32 73
e 32 74
e 75 76
e 75 77
e 75 78
e 75 79
e 75 80
e 75 81
e 75 82
e 75 83
e 75 84
e 75 85
e 75 86
e 75 87
e 75 88
e 75 89
e 75 90
e 75 91
e 75 92
e 93 94
e 93 95
e 93 96
e 93 97
e 93 98
e 93 99
e 93 100
e 93 101
e 93 102
e 93 103
e 93 104
e 93 105
e 93 106
e 93 107
e 93 108
e 93 109
e 93 110
e 93 111
e 93 112
e 93 113
e 93 114
e 93 115
e 93 116
e 93 117
e 93 118
e 93 119
e 93 120
e 93 121
e 93 122
e 93 123
e 93 124
e 93 125
e 93 126
e 93 127
e 93 128
e 93 129
e 93 130
e 93 131
e 93 132
e 93 133
e 93 134
e 93 135
e 93 136
e 93 137
e 93 138
e 93 139
e 93 140
e 93 141
e 93 142
e 93 143
e 93 144
e 93 145
e 93 146
e 93 147
e 93 148
e 93 149
e 93 150
e 93 151
e 93 152
e 93 153
e 93 154
e 93 155
e 93 156
e 93 157
e 93 158
e 93 159
e 93 160
e 161 162
e 161 163
e 161 164
e 161 165
e 161 166
e 161 167
e 161 168
e 161 169
e 161 170
e 161 171
e 161 172
e 161 173
e 161 174
e 161 175
e 161 176
e 161 177
e 161 178
e 161 179
e 161 180
e 161 181
e 161 182
e 161 183
e 161 184
e 161 185
e 161 186
e 161 187
e 161 188
e 161 189
e 161 190
e 161 191
e 161 192
e 161 193
e 161 194
e 161 195
e 161 196
e 161 197
e 161 198
e 161 199
e 161 200
e 161 201
e 161 202
e 161 203
e 161 204
e 161 205
e 161 206
e 207 208
e 207 209
e 207 210
e 207 211
e 207 212
e 207 213
e 207 214
e 207 215
e 207 216
e 207 217
e 207 218
e 207 219
e 207 220
e 207 221
e 207 222
e 207 223
e 207 224
e 207 225
e 207 226
e 207 227
e 207 228
e 207 229
e 207 230
e 207 231
e 207 232
e 207 233
e 207 234
e 207 235
e 207 236
e 207 237
e 207 238
e 207 239
e 207 240
e 207 241
e 207 242
e 207 243
e 207 244
e 207 245
e 207 246
e 207 247
e 207 248
e 207 249
e 207 250
e 207 251
e 207 252
e 207 253
e 207 254
e 207 255
e 207 256
e 207 257
e 207 258
e 207 259
e 207 260
e 207 261
e 207 262
e 207 263
e 207 264
e 207 265
e 207 266
e 207 267
e 207 268
e 207 269
e 207 270
e 207 271
e 272 273
e 272 274
e 272 275
e 272 276
e 272 277
e 272 278
e 272 279
e 272 280
e 272 281
e 272 282
e 272 283
e 272 284
e 272 285
e 272 286
e 272 287
e 272 288
e 272 289
e 272 290
e 272 291
e 272 292
e 272 293
e 272 294
e 272 295
e 272 296
e 272 297
e 272 298
e 272 299
e 272 300
e 272 301
e 272 302
e 272 303
e 272 304
e 272 305
e 272 306
e 272 307
e 272 308
e 272 309
e 272 310
e 272 311
e 312 313
e 312 314
e 312 315
e 312 316
e 312 317
e 312 318
e 312 319
e 312 320
e 312 321
e 312 322
e 312 323
e 312 324
e 312 325
e 312 326
e 312 327
e 312 328
e 312 329
e 312 330
e 312 331
e 312 332
e 312 333
e 312 334
e 312 335
e 312 336
e 312 337
e 312 338
e 312 339
e 312 340
e 312 341
e 312 342
e 312 343
e 312 344
e 312 345
e 312 346
e 312 347
e 312 348
e 349 350
e 349 351
e 349 352
e 349 353
e 349 354
e 349 355
e 349 356
e 349 357
e 349 358
e 349 359
e 349 360
e 349 361
e 349 362
e 349 363
e 349 364
e 349 365
e 349 366
e 349 367
e 349 368
e 349 369
e 349 370
e 349 371
e 349 372
e 349 373
e 349 374
e 349 375
e 349 376
e 349 377
e 349 378
e 349 379
e 349 380
e 349 381
e 349 382
e 349 383
e 349 384
e 349 385
e 349 386
e 349 387
e 349 388
e 349 389
e 349 390
e 349 391
e 349 392
e 349 393
e 349 394
e 349 395
e 349 396
e 349 397
e 349 398
e 349 399
e 349 400
e 349 401
e 349 402
e 403 404
e 403 405
e 403 406
e 403 407
e 403 408
e 403 409
e 403 410
e 403 411
e 403 412
e 403 413
e 403 414
e 403 415
e 403 416
e 403 417
e 403 418
e 403 419
e 403 420
e 403 421
e 403 422
e 403 423
e 403 424
e 403 425
e 403 426
e 403 427
e 403 428
e 403 429
e 403 430
e 403 431
e 403 432
e 403 433
e 403 434
e 403 435
e 403 436
e 403 437
e 403 438
e 403 439
e 403 440
e 403 441
e 403 442
e 403 443
e 403 444
e 403 445
e 403 446
e 403 447
e 403 448
e 403 449
e 403 450
e 403 451
e 403 452
e 403 453
e 454 455
e 454 456
e 454 457
e 454 458
e 454 459
e 454 460
e 454 461
e 454 462
e 454 463
e 454 464
e 454 465
e 454 466
e 454 467
e 454 468
e 454 469
e 454 470
e 454 471
e 472 473
e 472 474
e 472 475
e 472 476
e 472 477
e 472 478
e 472 479
e 472 480
e 472 481
e 472 482
e 472 483
e 472 484
e 472 485
e 472 486
e 472 487
e 472 488
e 472 489
e 472 490
e 472 491
e 472 492
e 472 493
e 472 494
e 472 495
e 472 496
e 472 497
e 472 498
e 472 499
e 472 500
e 472 501
e 472 502
e 472 503
e 472 504
e 472 505
e 472 506
e 472 507
e 472 508
e 472 509
e 472 510
e 472 511
e 472 512
e 472 513
e 472 514
e 472 515
e 472 516
e 472 517
e 472 518
e 519 520
e 519 521
e 519 522
e 519 523
e 519 524
e 519 525
e 519 526
e 519 527
e 519 528
e 519 529
e 519 530
e 519 531
e 519 532
e 519 533
e 519 534
e 519 535
e 519 536
e 519 537
e 519 538
e 519 539
e 519 540
e 519 541
e 519 542
e 519 543
e 519 544
e 519 545
e 519 546
e 519 547
e 519 548
e 519 549
e 519 550
e 551 552
e 551 553
e 551 554
e 551 555
e 551 556
e 551 557
e 551 558
e 551 559
e 551 560
e 551 561
e 551 562
e 551 563
e 551 564
e 551 565
e 551 566
e 551 567
e 551 568
e 551 569
e 551 570
e 551 571
e 551 572
e 551 573
e 551 574
e 551 575
e 551 576
e 551 577
e 551 578
e 551 579
e 551 580
e 551 581
e 551 582
e 551 583
e 551 584
e 551 585
e 551 586
e 551 587
e 551 588
e 551 589
e 551 590
e 551 591
e 551 592
e 551 593
e 551 594
e 595 596
e 595 597
e 595 598
e 595 599
e 595 600
e 595 601
e 595 602
e 595 603
e 595 604
e 595 605
e 595 606
e 595 607
e 595 608
e 595 609
e 595 610
e 595 611
e 595 612
e 595 613
e 595 614
e 595 615
e 595 616
e 595 617
e 595 618
e 595 619
e 595 620
e 595 621
e 595 622
e 595 623
e 595 624
e 595 625
e 595 626
e 595 627
e 595 628
e 595 629
e 595 630
e 595 631
e 595 632
e 595 633
e 595 634
e 595 635
e 595 636
e 595 637
e 595 638
e 595 639
e 595 640
e 595 641
e 595 642
e 595 643
e 595 644
e 595 645
e 595 646
e 595 647
e 595 648
e 595 649
e 595 650
e 595 651
e 595 652
e 595 653
e 595 654
e 595 655
e 595 656
e 595 657
e 595 658
e 595 659
e 595 660
e 595 661
e 662 663
e 662 664
e 662 665
e 662 666
e 662 667
e 662 668
e 662 669
e 662 670
e 662 671
e 662 672
e 662 673
e 662 674
e 662 675
e 662 676
e 662 677
e 662 678
e 662 679
e 662 680
e 662 681
e 662 682
e 662 683
e 662 684
e 662 685
e 662 686
e 662 687
e 662 688
e 662 689
e 662 690
e 662 691
e 662 692
e 662 693
e 662 694
e 662 695
e 662 696
e 662 697
e 662 698
e 662 699
e 662 700
e 662 701
e 662 702
e 662 703
e 662 704
e 662 705
e 662 706
e 662 707
e 662 708
e 662 709
e 662 710
e 662 711
e 662 712
e 662 713
e 662 714
e 662 715
e 662 716
e 662 717
e 718 719
e 718 720
e 718 721
e 718 722
e 718 723
e 718 724
e 718 725
e 718 726
e 718 727
e 718 728
e 718 729
e 718 730
e 718 731
e 718 732
e 718 733
e 718 734
e 718 735
e 718 736
e 718 737
e 718 738
e 718 739
e 718 740
e 718 741
e 718 742
e 718 743
e 718 744
e 718 745
e 718 746
e 718 747
e 718 748
e 718 749
e 718 750
e 718 751
e 718 752
e 718 753
e 718 754
e 718 755
e 718 756
e 718 757
e 718 758
e 718 759
e 718 760
e 718 761
e 718 762
e 718 763
e 718 764
e 718 765
e 718 766
e 718 767
e 718 768
e 718 769
e 770 771
e 770 772
e 770 773
e 770 774
e 770 775
e 770 776
e 770 777
e 770 778
e 770 779
e 770 780
e 770 781
e 770 782
e 770 783
e 770 784
e 770 785
e 770 786
e 770 787
e 770 788
e 770 789
e 770 790
e 770 791
e 770 792
e 770 793
e 770 794
e 770 795
e 770 796
e 770 797
e 770 798
e 770 799
e 770 800
e 770 801
e 770 802
e 770 803
e 770 804
e 770 805
e 770 806
e 770 807
e 770 808
e 770 809
e 770 810
e 770 811
e 770 812
e 770 813
e 770 814
e 770 815
e 770 816
e 770 817
e 770 818
e 770 819
e 770 820
e 770 821
e 770 822
e 770 823
e 770 824
e 770 825
e 770 826
e 770 827
e 770 828
e 770 829
e 770 830
e 770 831
e 770 832
e 770 833
e 770 834
e 835 836
e 835 837
e 835 838
e 835 839
e 835 840
e 835 841
e 835 842
e 835 843
e 835 844
e 835 845
e 835 846
e 835 847
e 835 848
e 835 849
e 850 851
e 850 852
e 850 853
e 850 854
e 850 855
e 850 856
e 850 857
e 850 858
e 850 859
e 850 860
e 850 861
e 850 862
e 850 863
e 850 864
e 850 865
e 850 866
e 850 867
e 850 868
e 850 869
e 850 870
e 850 871
e 850 872
e 850 873
e 850 874
e 850 875
e 850 876
e 850 877
e 850 878
e 850 879
e 850 880
e 850 881
e 850 882
e 850 883
e 850 884
e 850 885
e 886 887
e 886 888
e 886 889
e 886 890
e 886 891
e 886 892
e 886 893
e 886 894
e 886 895
e 886 896
e 886 897
e 886 898
e 886 899
e 886 900
e 886 901
e 886 902
e 886 903
e 886 904
e 886 905
e 886 906
e 886 907
e 886 908
e 886 909
e 886 910
e 886 911
e 886 912
e 886 913
e 886 914
e 886 915
e 886 916
e 886 917
e 886 918
e 886 919
e 886 920
e 886 921
e 886 922
e 886 923
e 886 924
e 886 925
e 886 926
e 886 927
e 886 928
e 929 930
e 929 931
e 929 932
e 929 933
e 929 934
e 929 935
e 929 936
e 929 937
e 929 938
e 929 939
e 929 940
e 929 941
e 929 942
e 929 943
e 929 944
e 929 945
e 929 946
e 929 947
e 929 948
e 929 949
e 929 950
e 929 951
e 929 952
e 929 953
e 929 954
e 929 955
e 929 956
e 929 957
e 929 958
e 929 959
e 929 960
e 929 961
e 929 962
e 929 963
e 929 964
e 929 965
e 929 966
e 929 967
e 929 968
e 929 969
e 929 970
e 929 971
e 929 972
e 929 973
e 929 974
e 929 975
e 929 976
e 929 977
e 929 978
e 929 979
e 929 980
e 929 981
e 929 982
e 929 983
e 929 984
e 929 985
e 929 986
e 987 988
e 987 989
e 987 990
e 987 991
e 987 992
e 987 993
e 987 994
e 987 995
e 987 996
e 987 997
e 987 998
e 987 999
e 987 1000
e 987 1001
e 987 1002
e 987 1003
e 987 1004
e 987 1005
e 987 1006
e 987 1007
e 987 1008
e 987 1009
e 987 1010
e 1011 1012
e 1011 1013
e 1011 1014
e 1011 1015
e 1011 1016
e 1011 1017
e 1011 1018
e 1011 1019
e 1011 1020
e 1011 1021
e 1011 1022
e 1011 1023
e 1011 1024
e 1011 1025
e 1011 1026
e 1011 1027
e 1011 1028
e 1011 1029
e 1011 1030
e 1011 1031
e 1011 1032
e 1011 1033
e 1011 1034
e 1011 1035
e 1011 1036
e 1011 1037
e 1011 1038
e 1011 1039
e 1011 1040
e 1011 1041
e 1011 1042
e 1011 1043
e 1011 1044
e 1011 1045
e 1011 1046
e 1011 1047
e 1011 1048
e 1011 1049
e 1011 1050
e 1011 1051
e 1011 1052
e 1011 1053
e 1011 1054
e 1011 1055
e 1011 1056
e 1011 1057
e 1011 1058
e 1011 1059
e 1011 1060
e 1011 1061
e 1011 1062
e 1011 1063
e 1011 1064
e 1011 1065
e 1011 1066
e 1011 1067
e 1011 1068
e 1011 1069
e 1011 1070
e 1011 1071
e 1011 1072
e 1011 1073
e 1011 1074
e 1011 1075
e 1011 1076
e 1011 1077
e 1011 1078
e 1011 1079
e 1011 1080
e 1081 1082
e 1081 1083
e 1081 1084
e 1081 1085
e 1081 1086
e 1081 1087
e 1081 1088
e 1081 1089
e 1081 1090
e 1081 1091
e 1081 1092
e 1081 1093
e 1081 1094
e 1081 1095
e 1081 1096
e 1081 1097
e 1081 1098
e 1081 1099
e 1081 1100
e 1081 1101
e 1081 1102
e 1081 1103
e 1081 1104
e 1081 1105
e 1081 1106
e 1081 1107
e 1081 1108
e 1081 1109
e 1081 1110
e 1081 1111
e 1081 1112
e 1081 1113
e 1081 1114
e 1081 1115
e 1081 1116
e 1081 1117
e 1081 1118
e 1081 1119
e 1081 1120
e 1081 1121
e 1081 1122
e 1081 1123
e 1081 1124
e 1125 1126
e 1125 1127
e 1125 1128
e 1125 1129
e 1125 1130
e 1125 1131
e 1125 1132
e 1125 1133
e 1125 1134
e 1125 1135
e 1125 1136
e 1125 1137
e 1125 1138
e 1125 1139
e 1125 1140
e 1125 1141
e 1125 1142
e 1125 1143
e 1125 1144
e 1125 1145
e 1125 1146
e 1125 1147
e 1125 1148
e 1125 1149
e 1125 1150
e 1125 1151
e 1125 1152
e 1153 1154
e 1153 1155
e 1153 1156
e 1153 1157
e 1153 1158
e 1153 1159
e 1153 1160
e 1153 1161
e 1153 1162
e 1153 1163
e 1153 1164
e 1153 1165
e 1153 1166
e 1153 1167
e 1153 1168
e 1153 1169
e 1153 1170
e 1153 1171
e 1153 1172
e 1153 1173
e 1153 1174
e 1153 1175
e 1153 1176
e 1153 1177
e 1153 1178
e 1153 1179
e 1153 1180
e 1153 1181
e 1153 1182
e 1153 1183
e 1153 1184
e 1153 1185
e 1153 1186
e 1153 1187
e 1153 1188
e 1153 1189
e 1153 1190
e 1153 1191
e 1153 1192
e 1193 1194
e 1193 1195
e 1193 1196
e 1193 1197
e 1193 1198
e 1193 1199
e 1193 1200
e 1193 1201
e 1193 1202
e 1193 1203
e 1193 1204
e 1205 1206
e 1205 1207
e 1205 1208
e 1205 1209
e 1205 1210
e 1205 1211
e 1205 1212
e 1205 1213
e 1205 1214
e 1205 1215
e 1205 1216
e 1205 1217
e 1205 1218
e 1205 1219
e 1205 1220
e 1205 1221
e 1205 1222
e 1205 1223
e 1205 1224
e 1225 1226
e 1225 1227
e 1225 1228
e 1225 1229
e 1225 1230
e 1225 1231
e 1225 1232
e 1225 1233
e 1225 1234
e 1225 1235
e 1225 1236
e 1225 1237
e 1225 1238
e 1225 1239
e 1225 1240
e 1225 1241
e 1225 1242
e 1225 1243
e 1225 1244
e 1225 1245
e 1225 1246
e 1225 1247
e 1225 1248
e 1225 1249
e 1225 1250
e 1225 1251
e 1225 1252
e 1225 1253
e 1225 1254
e 1225 1255
e 1225 1256
e 1225 1257
e 1225 1258
e 1225 1259
e 1225 1260
e 1261 1262
e 1261 1263
e 1261 1264
e 1261 1265
e 1261 1266
e 1261 1267
e 1261 1268
e 1261 1269
e 1261 1270
e 1261 1271
e 1261 1272
e 1261 1273
e 1261 1274
e 1261 1275
e 1261 1276
e 1261 1277
e 1261 1278
e 1261 1279
e 1261 1280
e 1261 1281
e 1261 1282
e 1261 1283
e 1261 1284
e 1261 1285
e 1261 1286
e 1261 1287
e 1261 1288
e 1261 1289
e 1261 1290
e 1261 1291
e 1261 1292
e 1261 1293
e 1261 1294
e 1261 1295
e 1261 1296
e 1261 1297
e 1261 1298
e 1261 1299
e 1261 1300
e 1261 1301
e 1261 1302
e 1261 1303
e 1261 1304
e 1261 1305
e 1261 1306
e 1261 1307
e 1261 1308
e 1261 1309
e 1261 1310
e 1261 1311
e 1261 1312
e 1261 1313
e 1261 1314
e 1261 1315
e 1261 1316
e 1261 1317
e 1261 1318
e 1261 1319
e 1261 1320
e 1261 1321
e 1261 1322
e 1261 1323
e 1261 1324
e 1261 1325
e 1261 1326
e 1261 1327
e 1261 1328
e 1261 1329
e 1261 1330
e 1261 1331
e 1332 1333
e 1332 1334
e 1332 1335
e 1332 1336
e 1332 1337
e 1332 1338
e 1332 1339
e 1332 1340
e 1332 1341
e 1332 1342
e 1332 1343
e 1332 1344
e 1332 1345
e 1332 1346
e 1332 1347
e 1332 1348
e 1332 1349
e 1332 1350
e 1332 1351
e 1332 1352
e 1332 1353
e 1332 1354
e 1332 1355
e 1332 1356
e 1332 1357
e 1332 1358
e 1332 1359
e 1332 1360
e 1332 1361
e 1332 1362
e 1332 1363
e 1332 1364
e 1332 1365
e 1332 1366
e 1332 1367
e 1332 1368
e 1332 1369
e 1332 1370
e 1332 1371
e 1332 1372
e 1332 1373
e 1332 1374
e 1332 1375
e 1332 1376
e 1332 1377
e 1332 1378
e 1332 1379
e 1332 1380
e 1332 1381
e 1332 1382
e 1332 1383
e 1332 1384
e 1332 1385
e 1386 1387
e 1386 1388
e 1386 1389
e 1386 1390
e 1386 1391
e 1386 1392
e 1386 1393
e 1386 1394
e 1386 1395
e 1386 1396
e 1386 1397
e 1386 1398
e 1386 1399
e 1386 1400
e 1386 1401
e 1386 1402
e 1386 1403
e 1386 1404
e 1386 1405
e 1386 1406
e 1386 1407
e 1386 1408
e 1386 1409
e 1386 1410
e 1386 1411
e 1386 1412
e 1386 1413
e 1386 1414
e 1386 1415
e 1386 1416
e 1386 1417
e 1386 1418
e 1386 1419
e 1386 1420
e 1386 1421
e 1386 1422
e 1386 1423
e 1386 1424
e 1386 1425
e 1386 1426
e 1386 1427
e 1386 1428
e 1386 1429
e 1386 1430
e 1386 1431
e 1386 1432
e 1386 1433
e 1386 1434
e 1386 1435
e 1386 1436
e 1386 1437
e 1386 1438
e 1386 1439
e 1440 1441
e 1440 1442
e 1440 1443
e 1440 1444
e 1440 1445
e 1440 1446
e 1440 1447
e 1440 1448
e 1440 1449
e 1440 1450
e 1440 1451
e 1440 1452
e 1440 1453
e 1440 1454
e 1440 1455
e 1440 1456
e 1440 1457
e 1440 1458
e 1440 1459
e 1440 1460
e 1440 1461
e 1440 1462
e 1440 1463
e 1440 1464
e 1440 1465
e 1440 1466
e 1440 1467
e 1440 1468
e 1440 1469
e 1440 1470
e 1440 1471
e 1440 1472
e 1440 1473
e 1440 1474
e 1440 1475
e 1440 1476
e 1440 1477
e 1440 1478
e 1440 1479
e 1440 1480
e 1440 1481
e 1440 1482
e 1440 1483
e 1440 1484
e 1440 1485
e 1440 1486
e 1440 1487
e 1440 1488
e 1440 1489
e 1440 1490
e 1440 1491
e 1440 1492
e 1440 1493
e 1440 1494
e 1440 1495
e 1440 1496
e 1440 1497
e 1440 1498
e 1440 1499
e 1440 1500
e 1440 1501
e 1440 1502
e 1440 1503
e 1504 1505
e 1504 1506
e 1504 1507
e 1504 1508
e 1504 1509
e 1504 1510
e 1504 1511
e 1504 1512
e 1504 1513
e 1504 1514
e 1504 1515
e 1504 1516
e 1504 1517
e 1504 1518
e 1504 1519
e 1504 1520
e 1504 1521
e 1504 1522
e 1504 1523
e 1504 1524
e 1504 1525
e 1504 1526
e 1504 1527
e 1504 1528
e 1504 1529
e 1504 1530
e 1504 1531
e 1532 1533
e 1532 1534
e 1532 1535
e 1532 1536
e 1532 1537
e 1532 1538
e 1532 1539
e 1532 1540
e 1532 1541
e 1532 1542
e 1532 1543
e 1532 1544
e 1532 1545
e 1532 1546
e 1532 1547
e 1532 1548
e 1532 1549
e 1532 1550
e 1532 1551
e 1532 1552
e 1532 1553
e 1532 1554
e 1532 1555
e 1532 1556
e 1532 1557
e 1532 1558
e 1532 1559
e 1532 1560
e 1532 1561
e 1532 1562
e 1532 1563
e 1532 1564
e 1532 1565
e 1532 1566
e 1532 1567
e 1532 1568
e 1532 1569
e 1532 1570
e 1532 1571
e 1532 1572
e 1532 1573
e 1532 1574
e 1532 1575
e 1532 1576
e 1532 1577
e 1532 1578
e 1532 1579
e 1580 1581
e 1580 1582
e 1580 1583
e 1580 1584
e 1580 1585
e 1580 1586
e 1580 1587
e 1580 1588
e 1580 1589
e 1580 1590
e 1580 1591
e 1580 1592
e 1580 1593
e 1580 1594
e 1580 1595
e 1596 1597
e 1596 1598
e 1596 1599
e 1596 1600
e 1596 1601
e 1596 1602
e 1596 1603
e 1596 1604
e 1596 1605
e 1596 1606
e 1596 1607
e 1596 1608
e 1596 1609
e 1596 1610
e 1596 1611
e 1596 1612
e 1613 1614
e 1613 1615
e 1613 1616
e 1613 1617
e 1613 1618
e 1613 1619
e 1613 1620
e 1613 1621
e 1613 1622
e 1613 1623
e 1613 1624
e 1613 1625
e 1613 1626
e 1613 1627
e 1613 1628
e 1613 1629
e 1613 1630
e 1613 1631
e 1613 1632
e 1613 1633
e 1613 1634
e 1613 1635
e 1613 1636
e 1613 1637
e 1613 1638
e 1613 1639
e 1613 1640
e 1613 1641
e 1613 1642
e 1613 1643
e 1613 1644
e 1613 1645
e 1613 1646
e 1613 1647
e 1613 1648
e 1613 1649
e 1613 1650
e 1613 1651
e 1613 1652
e 1613 1653
e 1613 1654
e 1613 1655
e 1613 1656
e 1613 1657
e 1613 1658
e 1613 1659
e 1613 1660
e 1613 1661
e 1613 1662
e 1613 1663
e 1613 1664
e 1613 1665
e 1613 1666
e 1613 1667
e 1613 1668
e 1613 1669
e 1613 1670
e 1613 1671
e 1613 1672
e 1613 1673
e 1613 1674
e 1613 1675
e 1613 1676
e 1613 1677
e 1613 1678
e 1613 1679
e 1613 1680
e 1613 1681
e 1613 1682
e 1683 1684
e 1683 1685
e 1683 1686
e 1683 1687
e 1683 1688
e 1683 1689
e 1683 1690
e 1683 1691
e 1683 1692
e 1683 1693
e 1683 1694
e 1683 1695
e 1683 1696
e 1683 1697
e 1683 1698
e 1683 1699
e 1683 1700
e 1683 1701
e 1683 1702
e 1683 1703
e 1683 1704
e 1683 1705
e 1683 1706
e 1683 1707
e 1683 1708
e 1683 1709
e 1683 1710
e 1683 1711
e 1683 1712
e 1683 1713
e 1683 1714
e 1683 1715
e 1683 1716
e 1683 1717
e 1683 1718
e 1683 1719
e 1683 1720
e 1683 1721
e 1683 1722
e 1683 1723
e 1683 1724
e 1683 1725
e 1683 1726
e 1683 1727
e 1683 1728
e 1683 1729
e 1683 1730
e 1683 1731
e 1732 1733
e 1732 1734
e 1732 1735
e 1732 1736
e 1732 1737
e 1732 1738
e 1732 1739
e 1732 1740
e 1732 1741
e 1732 1742
e 1732 1743
e 1732 1744
e 1732 1745
e 1732 1746
e 1732 1747
e 1732 1748
e 1732 1749
e 1732 1750
e 1732 1751
e 1732 1752
e 1732 1753
e 1732 1754
e 1732 1755
e 1732 1756
e 1732 1757
e 1732 1758
e 1732 1759
e 1732 1760
e 1732 1761
e 1732 1762
e 1732 1763
e 1732 1764
e 1732 1765
e 1732 1766
e 1732 1767
e 1732 1768
e 1732 1769
e 1732 1770
e 1732 1771
e 1732 1772
e 1732 1773
e 1732 1774
e 1732 1775
e 1732 1776
e 1732 1777
e 1732 1778
e 1732 1779
e 1732 1780
e 1732 1781
e 1732 1782
e 1732 1783
e 1732 1784
e 1732 1785
e 1732 1786
e 1732 1787
e 1732 1788
e 1732 1789
e 1732 1790
e 1732 1791
e 1792 1793
e 1792 1794
e 1792 1795
e 1792 1796
e 1792 1797
e 1792 1798
e 1792 1799
e 1792 1800
e 1792 1801
e 1792 1802
e 1792 1803
e 1792 1804
e 1792 1805
e 1792 1806
e 1792 1807
e 1792 1808
e 1792 1809
e 1792 1810
e 1811 1812
e 1811 1813
e 1811 1814
e 1811 1815
e 1811 1816
e 1811 1817
e 1811 1818
e 1811 1819
e 1811 1820
e 1811 1821
e 1811 1822
e 1811 1823
e 1811 1824
e 1811 1825
e 1811 1826
e 1811 1827
e 1811 1828
e 1811 1829
e 1811 1830
e 1811 1831
e 1811 1832
e 1811 1833
e 1811 1834
e 1811 1835
e 1811 1836
e 1811 1837
e 1811 1838
e 1811 1839
e 1811 1840
e 1811 1841
e 1811 1842
e 1811 1843
e 1811 1844
e 1811 1845
e 1811 1846
e 1811 1847
e 1811 1848
e 1811 1849
e 1811 1850
e 1811 1851
e 1811 1852
e 1811 1853
e 1811 1854
e 1811 1855
e 1811 1856
e 1811 1857
e 1811 1858
e 1811 1859
e 1811 1860
e 1811 1861
e 1811 1862
e 1811 1863
e 1811 1864
e 1811 1865
e 1811 1866
e 1811 1867
e 1811 1868
e 1811 1869
e 1811 1870
e 1811 1871
e 1811 1872
e 1811 1873
e 1811 1874
e 1811 1875
e 1811 1876
e 1811 1877
e 1811 1878
e 1879 1880
e 1879 1881
e 1879 1882
e 1879 1883
e 1879 1884
e 1879 1885
e 1879 1886
e 1879 1887
e 1879 1888
e 1879 1889
e 1879 1890
e 1879 1891
e 1879 1892
e 1879 1893
e 1879 1894
e 1879 1895
e 1879 1896
e 1879 1897
e 1879 1898
e 1879 1899
e 1879 1900
e 1879 1901
e 1879 1902
e 1879 1903
e 1879 1904
e 1879 1905
e 1879 1906
e 1879 1907
e 1879 1908
e 1909 1910
e 1909 1911
e 1909 1912
e 1909 1913
e 1909 1914
e 1909 1915
e 1909 1916
e 1909 1917
e 1909 1918
e 1909 1919
e 1909 1920
e 1909 1921
e 1909 1922
e 1909 1923
e 1909 1924
e 1909 1925
e 1909 1926
e 1909 1927
e 1909 1928
e 1909 1929
e 1909 1930
e 1909 1931
e 1909 1932
e 1909 1933
e 1909 1934
e 1909 1935
e 1909 1936
e 1909 1937
e 1909 1938
e 1909 1939
e 1909 1940
e 1909 1941
e 1909 1942
e 1909 1943
e 1909 1944
e 1909 1945
e 1909 1946
e 1909 1947
e 1909 1948
e 1909 1949
e 1909 1950
e 1909 1951
e 1909 1952
e 1909 1953
e 1909 1954
e 1909 1955
e 1909 1956
e 1909 1957
e 1909 1958
e 1909 1959
e 1909 1960
e 1909 1961
e 1909 1962
e 1909 1963
e 1909 1964
e 1909 1965
e 1909 1966
e 1909 1967
e 1909 1968
e 1909 1969
e 1909 1970
e 1909 1971
e 1972 1973
e 1972 1974
e 1972 1975
e 1972 1976
e 1972 1977
e 1972 1978
e 1972 1979
e 1972 1980
e 1972 1981
e 1972 1982
e 1972 1983
e 1972 1984
e 1972 1985
e 1972 1986
e 1972 1987
e 1972 1988
e 1972 1989
e 1972 1990
e 1972 1991
e 1972 1992
e 1972 1993
e 1972 1994
e 1972 1995
e 1972 1996
e 1972 1997
e 1972 1998
e 1972 1999
e 1972 2000
e 1972 2001
e 1972 2002
e 1972 2003
e 1972 2004
e 2005 2006
e 2005 2007
e 2005 2008
e 2005 2009
e 2005 2010
e 2005 2011
e 2005 2012
e 2005 2013
e 2005 2014
e 2005 2015
e 2005 2016
e 2005 2017
e 2005 2018
e 2005 2019
e 2005 2020
e 2005 2021
e 2005 2022
e 2005 2023
e 2005 2024
e 2005 2025
e 2005 2026
e 2005 2027
e 2005 2028
e 2005 2029
e 2005 2030
e 2005 2031
e 2005 2032
e 2005 2033
e 2005 2034
e 2005 2035
e 2005 2036
e 2005 2037
e 2005 2038
e 2005 2039
e 2005 2040
e 2005 2041
e 2005 2042
e 2005 2043
e 2005 2044
e 2005 2045
e 2005 2046
e 2005 2047
e 2005 2048
e 2049 2050
e 2049 2051
e 2049 2052
e 2049 2053
e 2049 2054
e 2049 2055
e 2049 2056
e 2049 2057
e 2049 2058
e 2049 2059
e 2049 2060
e 2049 2061
e 2049 2062
e 2049 2063
e 2049 2064
e 2049 2065
e 2049 2066
e 2049 2067
e 2049 2068
e 2049 2069
e 2049 2070
e 2049 2071
e 2049 2072
e 2049 2073
e 2049 2074
e 2049 2075
e 2049 2076
e 2049 2077
e 2049 2078
e 2049 2079
e 2049 2080
e 2049 2081
e 2049 2082
e 2049 2083
e 2049 2084
e 2049 2085
e 2049 2086
e 2049 2087
e 2049 2088
e 2049 2089
e 2049 2090
e 2049 2091
e 2049 2092
e 2049 2093
e 2049 2094
e 2049 2095
e 2049 2096
e 2049 2097
e 2049 2098
e 2049 2099
e 2049 2100
e 2049 2101
e 2049 2102
e 2049 2103
e 2049 2104
e 2049 2105
e 2049 2106
e 2049 2107
e 2049 2108
e 2049 2109
e 2049 2110
e 2049 2111
e 2049 2112
e 2049 2113
e 2049 2114
e 2049 2115
e 2049 2116
e 2049 2117
e 2118 2119
e 2118 2120
e 2118 2121
e 2118 2122
e 2118 2123
e 2118 2124
e 2118 2125
e 2118 2126
e 2118 2127
e 2118 2128
e 2118 2129
e 2118 2130
e 2118 2131
e 2118 2132
e 2118 2133
e 2118 2134
e 2118 2135
e 2118 2136
e 2118 2137
e 2118 2138
e 2118 2139
e 2118 2140
e 2118 2141
e 2118 2142
e 2118 2143
e 2118 2144
e 2118 2145
e 2118 2146
e 2118 2147
e 2118 2148
e 2118 2149
e 2118 2150
e 2118 2151
e 2118 2152
e 2118 2153
e 2118 2154
e 2118 2155
e 2118 2156
e 2118 2157
e 2118 2158
e 2118 2159
e 2118 2160
e 2118 2161
e 2118 2162
e 2118 2163
e 2118 2164
e 2118 2165
e 2118 2166
e 2118 2167
e 2118 2168
e 2118 2169
e 2118 2170
e 2118 2171
e 2118 2172
e 2118 2173
e 2118 2174
e 2118 2175
e 2118 2176
e 2118 2177
e 2118 2178
e 2118 2179
e 2118 2180
e 2118 2181
e 2118 2182
e 2118 2183
e 2118 2184
e 2185 2186
e 2185 2187
e 2185 2188
e 2185 2189
e 2185 2190
e 2185 2191
e 2185 2192
e 2185 2193
e 2185 2194
e 2185 2195
e 2185 2196
e 2185 2197
e 2185 2198
e 2185 2199
e 2185 2200
e 2185 2201
e 2185 2202
e 2185 2203
e 2185 2204
e 2185 2205
e 2185 2206
e 2185 2207
e 2185 2208
e 2185 2209
e 2185 2210
e 2185 2211
e 2185 2212
e 2185 2213
e 2185 2214
e 2185 2215
e 2185 2216
e 2185 2217
e 2185 2218
e 2185 2219
e 2185 2220
e 2185 2221
e 2185 2222
e 2185 2223
e 2185 2224
e 2185 2225
e 2185 2226
e 2185 2227
e 2185 2228
e 2185 2229
e 2185 2230
e 2185 2231
e 2185 2232
e 2185 2233
e 2185 2234
e 2185 2235
e 2185 2236
e 2185 2237
e 2185 2238
e 2185 2239
e 2185 2240
e 2185 2241
e 2185 2242
e 2185 2243
e 2185 2244
e 2185 2245
e 2185 2246
e 2185 2247
e 2185 2248
e 2185 2249
